\ Equation counts
\     Total        E        G        L        N        X        C        B
\	75	75	0	0
\
\ Variable counts
\                  x        b        i      s1s      s2s       sc       si
\     Total     cont   binary  integer     sos1     sos2    scont     sint
\	40	40

\ Nonzero counts
\     Total    const       NL      DLL
\
\
Minimize
 obj: [ - 4.5 x_1 * x_2 + 3.0 x_1 * x_4 - 7.0 x_1 * x_7 - 12.5 x_1 * x_8 - 21.5 x_1 * x_9 + 18.0 x_1 * x_10 + 10.5 x_1 * x_11 - 5.5 x_1 * x_12 + 21.5 x_1 * x_16 + 17.0 x_1 * x_21 - 1.5 x_1 * x_24 + 24.0 x_1 * x_26 - 21.5 x_1 * x_27 - 8.0 x_1 * x_33 - 20.5 x_1 * x_35 + 17.5 x_1 * x_37 + 10.0 x_1 * x_39 - 4.5 x_2 * x_1 + 7.5 x_2 * x_5 + 13.0 x_2 * x_6 + 23.5 x_2 * x_7 + 7.5 x_2 * x_10 + 8.5 x_2 * x_15 - 5.5 x_2 * x_17 - 18.0 x_2 * x_18 + 10.5 x_2 * x_22 - 20.5 x_2 * x_24 - 22.0 x_2 * x_25 + 20.5 x_2 * x_28 - 6.5 x_2 * x_30 + 13.0 x_2 * x_35 - 1.5 x_2 * x_36 - 14.5 x_2 * x_37 + 4.0 x_2 * x_39 - 12.0 x_3 * x_3 - 1.0 x_3 * x_4 - 7.5 x_3 * x_9 - 21.0 x_3 * x_10 + 16.0 x_3 * x_14 - 24.0 x_3 * x_16 + 12.0 x_3 * x_17 + 22.5 x_3 * x_18 - 20.0 x_3 * x_19 + 21.0 x_3 * x_21 - 22.5 x_3 * x_22 + 19.5 x_3 * x_23 - 10.0 x_3 * x_24 + 18.5 x_3 * x_27 + 4.0 x_3 * x_30 + 0.5 x_3 * x_31 - 7.0 x_3 * x_32 + 14.0 x_3 * x_34 - 14.5 x_3 * x_36 + 20.5 x_3 * x_37 - 16.5 x_3 * x_38 + 21.0 x_3 * x_39 + 3.0 x_4 * x_1 - 1.0 x_4 * x_3 + 22.5 x_4 * x_8 + 17.0 x_4 * x_10 + 17.5 x_4 * x_13 + 14.5 x_4 * x_16 + 14.5 x_4 * x_17 + 20.0 x_4 * x_19 + 4.5 x_4 * x_21 + 6.5 x_4 * x_24 + 20.0 x_4 * x_28 + 23.0 x_4 * x_37 + 17.0 x_4 * x_40 + 7.5 x_5 * x_2 - 22.5 x_5 * x_5 - 5.0 x_5 * x_6 - 21.5 x_5 * x_12 + 4.0 x_5 * x_13 + 15.5 x_5 * x_14 + 9.0 x_5 * x_17 - 7.5 x_5 * x_18 - 4.0 x_5 * x_19 + 1.0 x_5 * x_20 - 6.0 x_5 * x_22 + 17.0 x_5 * x_23 + 19.0 x_5 * x_36 - 19.0 x_5 * x_39 + 13.0 x_6 * x_2 - 5.0 x_6 * x_5 - 10.5 x_6 * x_6 + 4.0 x_6 * x_8 + 7.5 x_6 * x_9 + 24.5 x_6 * x_12 + 24.5 x_6 * x_13 + 8.5 x_6 * x_14 + 17.5 x_6 * x_16 + 24.5 x_6 * x_17 + 13.0 x_6 * x_18 - 9.0 x_6 * x_20 + 24.5 x_6 * x_24 + 13.0 x_6 * x_27 + 23.0 x_6 * x_31 + 0.5 x_6 * x_36 - 1.0 x_6 * x_39 - 7.0 x_7 * x_1 + 23.5 x_7 * x_2 + 14.5 x_7 * x_7 - 6.0 x_7 * x_13 + 21.5 x_7 * x_20 - 5.5 x_7 * x_23 + 2.0 x_7 * x_24 - 22.0 x_7 * x_30 + 8.5 x_7 * x_31 - 22.5 x_7 * x_32 + 3.0 x_7 * x_33 + 23.5 x_7 * x_36 - 6.0 x_7 * x_37 - 12.5 x_8 * x_1 + 22.5 x_8 * x_4 + 4.0 x_8 * x_6 + 23.0 x_8 * x_11 + 9.0 x_8 * x_15 - 5.5 x_8 * x_16 - 2.0 x_8 * x_18 - 7.5 x_8 * x_22 + 5.0 x_8 * x_26 + 23.5 x_8 * x_30 + 10.5 x_8 * x_31 + 20.5 x_8 * x_33 - 8.0 x_8 * x_34 + 0.5 x_8 * x_38 - 21.5 x_9 * x_1 - 7.5 x_9 * x_3 + 7.5 x_9 * x_6 - 13.0 x_9 * x_11 + 2.5 x_9 * x_15 - 2.5 x_9 * x_16 - 19.0 x_9 * x_25 - 11.0 x_9 * x_26 + 17.5 x_9 * x_27 + 22.5 x_9 * x_30 + 0.5 x_9 * x_31 + 18.5 x_9 * x_33 - 7.0 x_9 * x_34 + 8.5 x_9 * x_36 + 9.0 x_9 * x_40 + 18.0 x_10 * x_1 + 7.5 x_10 * x_2 - 21.0 x_10 * x_3 + 17.0 x_10 * x_4 - 10.0 x_10 * x_10 + 1.0 x_10 * x_12 + 23.5 x_10 * x_17 - 13.5 x_10 * x_19 + 0.5 x_10 * x_23 - 12.0 x_10 * x_24 - 24.0 x_10 * x_25 - 5.5 x_10 * x_26 + 24.0 x_10 * x_29 + 17.0 x_10 * x_31 + 17.5 x_10 * x_33 - 21.5 x_10 * x_37 - 20.5 x_10 * x_39 + 6.5 x_10 * x_40 + 10.5 x_11 * x_1 + 23.0 x_11 * x_8 - 13.0 x_11 * x_9 - 6.5 x_11 * x_13 + 3.0 x_11 * x_15 + 6.5 x_11 * x_22 - 10.5 x_11 * x_23 - 14.0 x_11 * x_25 - 9.0 x_11 * x_26 - 4.5 x_11 * x_33 - 5.5 x_12 * x_1 - 21.5 x_12 * x_5 + 24.5 x_12 * x_6 + 1.0 x_12 * x_10 + 10.5 x_12 * x_15 - 11.5 x_12 * x_17 + 4.5 x_12 * x_18 - 19.5 x_12 * x_21 + 18.5 x_12 * x_22 + 4.0 x_12 * x_25 + 1.5 x_12 * x_26 + 2.0 x_12 * x_29 + 6.0 x_12 * x_34 - 17.0 x_12 * x_39 + 15.5 x_12 * x_40 + 17.5 x_13 * x_4 + 4.0 x_13 * x_5 + 24.5 x_13 * x_6 - 6.0 x_13 * x_7 - 6.5 x_13 * x_11 + 18.5 x_13 * x_13 + 20.0 x_13 * x_15 + 9.0 x_13 * x_23 + 22.0 x_13 * x_25 + 13.5 x_13 * x_26 - 5.5 x_13 * x_29 - 13.5 x_13 * x_31 - 8.5 x_13 * x_36 + 16.0 x_14 * x_3 + 15.5 x_14 * x_5 + 8.5 x_14 * x_6 + 17.5 x_14 * x_14 + 17.5 x_14 * x_17 - 4.0 x_14 * x_20 + 0.5 x_14 * x_21 + 24.5 x_14 * x_27 - 8.5 x_14 * x_30 - 0.5 x_14 * x_34 + 7.0 x_14 * x_35 - 4.5 x_14 * x_36 + 8.5 x_14 * x_40 + 8.5 x_15 * x_2 + 9.0 x_15 * x_8 + 2.5 x_15 * x_9 + 3.0 x_15 * x_11 + 10.5 x_15 * x_12 + 20.0 x_15 * x_13 - 19.5 x_15 * x_16 + 10.0 x_15 * x_17 - 1.5 x_15 * x_19 + 24.5 x_15 * x_21 + 21.5 x_15 * x_24 - 18.5 x_15 * x_26 - 24.0 x_15 * x_27 + 8.0 x_15 * x_33 - 21.0 x_15 * x_35 + 21.5 x_16 * x_1 - 24.0 x_16 * x_3 + 14.5 x_16 * x_4 + 17.5 x_16 * x_6 - 5.5 x_16 * x_8 - 2.5 x_16 * x_9 - 19.5 x_16 * x_15 - 6.5 x_16 * x_17 + 18.5 x_16 * x_19 - 12.0 x_16 * x_20 - 11.5 x_16 * x_21 - 1.0 x_16 * x_23 - 8.0 x_16 * x_32 + 3.0 x_16 * x_38 + 7.0 x_16 * x_40 - 5.5 x_17 * x_2 + 12.0 x_17 * x_3 + 14.5 x_17 * x_4 + 9.0 x_17 * x_5 + 24.5 x_17 * x_6 + 23.5 x_17 * x_10 - 11.5 x_17 * x_12 + 17.5 x_17 * x_14 + 10.0 x_17 * x_15 - 6.5 x_17 * x_16 - 14.5 x_17 * x_19 + 13.5 x_17 * x_21 - 1.0 x_17 * x_23 - 23.0 x_17 * x_27 + 6.0 x_17 * x_31 - 20.0 x_17 * x_33 - 6.0 x_17 * x_35 + 8.0 x_17 * x_36 + 4.0 x_17 * x_37 + 5.0 x_17 * x_38 - 18.0 x_18 * x_2 + 22.5 x_18 * x_3 - 7.5 x_18 * x_5 + 13.0 x_18 * x_6 - 2.0 x_18 * x_8 + 4.5 x_18 * x_12 + 17.0 x_18 * x_18 - 9.5 x_18 * x_25 - 8.0 x_18 * x_26 - 14.5 x_18 * x_28 - 7.0 x_18 * x_29 - 6.5 x_18 * x_30 + 1.0 x_18 * x_31 - 5.5 x_18 * x_32 + 5.0 x_18 * x_33 + 8.5 x_18 * x_34 + 8.5 x_18 * x_35 + 4.0 x_18 * x_37 + 8.0 x_18 * x_38 - 20.0 x_19 * x_3 + 20.0 x_19 * x_4 - 4.0 x_19 * x_5 - 13.5 x_19 * x_10 - 1.5 x_19 * x_15 + 18.5 x_19 * x_16 - 14.5 x_19 * x_17 - 4.0 x_19 * x_21 - 15.5 x_19 * x_23 - 19.5 x_19 * x_24 - 2.0 x_19 * x_26 - 22.5 x_19 * x_27 + 17.0 x_19 * x_34 - 10.5 x_19 * x_35 - 3.0 x_19 * x_38 + 1.0 x_20 * x_5 - 9.0 x_20 * x_6 + 21.5 x_20 * x_7 - 4.0 x_20 * x_14 - 12.0 x_20 * x_16 + 12.5 x_20 * x_20 + 24.0 x_20 * x_22 + 4.0 x_20 * x_23 + 4.0 x_20 * x_28 + 21.5 x_20 * x_30 - 4.0 x_20 * x_32 - 13.0 x_20 * x_35 - 17.0 x_20 * x_36 + 8.5 x_20 * x_37 + 17.0 x_21 * x_1 + 21.0 x_21 * x_3 + 4.5 x_21 * x_4 - 19.5 x_21 * x_12 + 0.5 x_21 * x_14 + 24.5 x_21 * x_15 - 11.5 x_21 * x_16 + 13.5 x_21 * x_17 - 4.0 x_21 * x_19 + 11.5 x_21 * x_25 + 20.0 x_21 * x_29 + 21.0 x_21 * x_34 + 8.5 x_21 * x_40 + 10.5 x_22 * x_2 - 22.5 x_22 * x_3 - 6.0 x_22 * x_5 - 7.5 x_22 * x_8 + 6.5 x_22 * x_11 + 18.5 x_22 * x_12 + 24.0 x_22 * x_20 - 12.0 x_22 * x_25 + 15.5 x_22 * x_27 - 12.0 x_22 * x_28 - 12.5 x_22 * x_30 + 18.0 x_22 * x_32 + 23.5 x_22 * x_33 + 13.0 x_22 * x_34 + 19.5 x_23 * x_3 + 17.0 x_23 * x_5 - 5.5 x_23 * x_7 + 0.5 x_23 * x_10 - 10.5 x_23 * x_11 + 9.0 x_23 * x_13 - 1.0 x_23 * x_16 - 1.0 x_23 * x_17 - 15.5 x_23 * x_19 + 4.0 x_23 * x_20 - 7.0 x_23 * x_24 - 13.0 x_23 * x_30 - 3.0 x_23 * x_31 + 8.0 x_23 * x_33 + 9.5 x_23 * x_34 + 22.0 x_23 * x_36 + 13.0 x_23 * x_38 - 7.5 x_23 * x_40 - 1.5 x_24 * x_1 - 20.5 x_24 * x_2 - 10.0 x_24 * x_3 + 6.5 x_24 * x_4 + 24.5 x_24 * x_6 + 2.0 x_24 * x_7 - 12.0 x_24 * x_10 + 21.5 x_24 * x_15 - 19.5 x_24 * x_19 - 7.0 x_24 * x_23 + 5.0 x_24 * x_24 + 14.5 x_24 * x_30 + 18.0 x_24 * x_31 + 16.0 x_24 * x_32 + 19.5 x_24 * x_33 + 10.0 x_24 * x_36 + 13.0 x_24 * x_39 - 22.0 x_25 * x_2 - 19.0 x_25 * x_9 - 24.0 x_25 * x_10 - 14.0 x_25 * x_11 + 4.0 x_25 * x_12 + 22.0 x_25 * x_13 - 9.5 x_25 * x_18 + 11.5 x_25 * x_21 - 12.0 x_25 * x_22 + 1.5 x_25 * x_28 - 4.5 x_25 * x_30 + 11.0 x_25 * x_33 - 18.0 x_25 * x_34 + 20.5 x_25 * x_36 - 8.0 x_25 * x_40 + 24.0 x_26 * x_1 + 5.0 x_26 * x_8 - 11.0 x_26 * x_9 - 5.5 x_26 * x_10 - 9.0 x_26 * x_11 + 1.5 x_26 * x_12 + 13.5 x_26 * x_13 - 18.5 x_26 * x_15 - 8.0 x_26 * x_18 - 2.0 x_26 * x_19 + 5.0 x_26 * x_28 + 12.0 x_26 * x_30 + 17.5 x_26 * x_35 - 17.5 x_26 * x_36 + 8.0 x_26 * x_37 + 19.5 x_26 * x_39 - 21.5 x_27 * x_1 + 18.5 x_27 * x_3 + 13.0 x_27 * x_6 + 17.5 x_27 * x_9 + 24.5 x_27 * x_14 - 24.0 x_27 * x_15 - 23.0 x_27 * x_17 - 22.5 x_27 * x_19 + 15.5 x_27 * x_22 + 17.5 x_27 * x_28 + 14.5 x_27 * x_33 + 10.5 x_27 * x_34 - 22.0 x_27 * x_35 - 16.0 x_27 * x_39 + 19.5 x_27 * x_40 + 20.5 x_28 * x_2 + 20.0 x_28 * x_4 - 14.5 x_28 * x_18 + 4.0 x_28 * x_20 - 12.0 x_28 * x_22 + 1.5 x_28 * x_25 + 5.0 x_28 * x_26 + 17.5 x_28 * x_27 - 8.0 x_28 * x_30 - 2.0 x_28 * x_32 - 14.0 x_28 * x_35 + 23.5 x_28 * x_39 + 22.0 x_28 * x_40 + 24.0 x_29 * x_10 + 2.0 x_29 * x_12 - 5.5 x_29 * x_13 - 7.0 x_29 * x_18 + 20.0 x_29 * x_21 + 15.0 x_29 * x_29 - 5.5 x_29 * x_35 + 6.5 x_29 * x_36 - 17.0 x_29 * x_37 - 6.5 x_29 * x_38 - 19.5 x_29 * x_39 - 6.5 x_30 * x_2 + 4.0 x_30 * x_3 - 22.0 x_30 * x_7 + 23.5 x_30 * x_8 + 22.5 x_30 * x_9 - 8.5 x_30 * x_14 - 6.5 x_30 * x_18 + 21.5 x_30 * x_20 - 12.5 x_30 * x_22 - 13.0 x_30 * x_23 + 14.5 x_30 * x_24 - 4.5 x_30 * x_25 + 12.0 x_30 * x_26 - 8.0 x_30 * x_28 - 24.0 x_30 * x_31 + 11.5 x_30 * x_32 - 6.5 x_30 * x_33 - 21.5 x_30 * x_38 + 3.0 x_30 * x_39 + 0.5 x_31 * x_3 + 23.0 x_31 * x_6 + 8.5 x_31 * x_7 + 10.5 x_31 * x_8 + 0.5 x_31 * x_9 + 17.0 x_31 * x_10 - 13.5 x_31 * x_13 + 6.0 x_31 * x_17 + 1.0 x_31 * x_18 - 3.0 x_31 * x_23 + 18.0 x_31 * x_24 - 24.0 x_31 * x_30 + 10.5 x_31 * x_31 - 12.5 x_31 * x_33 + 21.5 x_31 * x_34 + 16.5 x_31 * x_38 - 7.0 x_32 * x_3 - 22.5 x_32 * x_7 - 8.0 x_32 * x_16 - 5.5 x_32 * x_18 - 4.0 x_32 * x_20 + 18.0 x_32 * x_22 + 16.0 x_32 * x_24 - 2.0 x_32 * x_28 + 11.5 x_32 * x_30 - 19.0 x_32 * x_36 + 10.5 x_32 * x_39 - 10.0 x_32 * x_40 - 8.0 x_33 * x_1 + 3.0 x_33 * x_7 + 20.5 x_33 * x_8 + 18.5 x_33 * x_9 + 17.5 x_33 * x_10 - 4.5 x_33 * x_11 + 8.0 x_33 * x_15 - 20.0 x_33 * x_17 + 5.0 x_33 * x_18 + 23.5 x_33 * x_22 + 8.0 x_33 * x_23 + 19.5 x_33 * x_24 + 11.0 x_33 * x_25 + 14.5 x_33 * x_27 - 6.5 x_33 * x_30 - 12.5 x_33 * x_31 + 7.5 x_33 * x_33 + 16.5 x_33 * x_35 - 15.5 x_33 * x_37 - 22.5 x_33 * x_38 + 7.0 x_33 * x_39 + 14.0 x_34 * x_3 - 8.0 x_34 * x_8 - 7.0 x_34 * x_9 + 6.0 x_34 * x_12 - 0.5 x_34 * x_14 + 8.5 x_34 * x_18 + 17.0 x_34 * x_19 + 21.0 x_34 * x_21 + 13.0 x_34 * x_22 + 9.5 x_34 * x_23 - 18.0 x_34 * x_25 + 10.5 x_34 * x_27 + 21.5 x_34 * x_31 - 7.0 x_34 * x_34 - 5.0 x_34 * x_36 - 18.5 x_34 * x_39 - 20.5 x_35 * x_1 + 13.0 x_35 * x_2 + 7.0 x_35 * x_14 - 21.0 x_35 * x_15 - 6.0 x_35 * x_17 + 8.5 x_35 * x_18 - 10.5 x_35 * x_19 - 13.0 x_35 * x_20 + 17.5 x_35 * x_26 - 22.0 x_35 * x_27 - 14.0 x_35 * x_28 - 5.5 x_35 * x_29 + 16.5 x_35 * x_33 - 18.0 x_35 * x_37 - 15.5 x_35 * x_38 + 14.5 x_35 * x_40 - 1.5 x_36 * x_2 - 14.5 x_36 * x_3 + 19.0 x_36 * x_5 + 0.5 x_36 * x_6 + 23.5 x_36 * x_7 + 8.5 x_36 * x_9 - 8.5 x_36 * x_13 - 4.5 x_36 * x_14 + 8.0 x_36 * x_17 - 17.0 x_36 * x_20 + 22.0 x_36 * x_23 + 10.0 x_36 * x_24 + 20.5 x_36 * x_25 - 17.5 x_36 * x_26 + 6.5 x_36 * x_29 - 19.0 x_36 * x_32 - 5.0 x_36 * x_34 + 5.0 x_36 * x_36 + 10.0 x_36 * x_38 - 22.0 x_36 * x_40 + 17.5 x_37 * x_1 - 14.5 x_37 * x_2 + 20.5 x_37 * x_3 + 23.0 x_37 * x_4 - 6.0 x_37 * x_7 - 21.5 x_37 * x_10 + 4.0 x_37 * x_17 + 4.0 x_37 * x_18 + 8.5 x_37 * x_20 + 8.0 x_37 * x_26 - 17.0 x_37 * x_29 - 15.5 x_37 * x_33 - 18.0 x_37 * x_35 - 16.5 x_38 * x_3 + 0.5 x_38 * x_8 + 3.0 x_38 * x_16 + 5.0 x_38 * x_17 + 8.0 x_38 * x_18 - 3.0 x_38 * x_19 + 13.0 x_38 * x_23 - 6.5 x_38 * x_29 - 21.5 x_38 * x_30 + 16.5 x_38 * x_31 - 22.5 x_38 * x_33 - 15.5 x_38 * x_35 + 10.0 x_38 * x_36 + 10.0 x_39 * x_1 + 4.0 x_39 * x_2 + 21.0 x_39 * x_3 - 19.0 x_39 * x_5 - 1.0 x_39 * x_6 - 20.5 x_39 * x_10 - 17.0 x_39 * x_12 + 13.0 x_39 * x_24 + 19.5 x_39 * x_26 - 16.0 x_39 * x_27 + 23.5 x_39 * x_28 - 19.5 x_39 * x_29 + 3.0 x_39 * x_30 + 10.5 x_39 * x_32 + 7.0 x_39 * x_33 - 18.5 x_39 * x_34 + 18.0 x_39 * x_40 + 17.0 x_40 * x_4 + 9.0 x_40 * x_9 + 6.5 x_40 * x_10 + 15.5 x_40 * x_12 + 8.5 x_40 * x_14 + 7.0 x_40 * x_16 + 8.5 x_40 * x_21 - 7.5 x_40 * x_23 - 8.0 x_40 * x_25 + 19.5 x_40 * x_27 + 22.0 x_40 * x_28 - 10.0 x_40 * x_32 + 14.5 x_40 * x_35 - 22.0 x_40 * x_36 + 18.0 x_40 * x_39 - 7.5 x_40 * x_40 ] + 0.0 x_1 + 15.0 x_2 + 0.0 x_3 - 19.0 x_4 + 0.0 x_5 + 17.0 x_6 - 25.0 x_7 + 0.0 x_8 + 0.0 x_9 + 0.0 x_10 + 0.0 x_11 + 0.0 x_12 + 0.0 x_13 + 11.0 x_14 - 31.0 x_15 + 0.0 x_16 + 0.0 x_17 + 0.0 x_18 + 0.0 x_19 + 0.0 x_20 + 0.0 x_21 + 0.0 x_22 + 0.0 x_23 + 0.0 x_24 + 11.0 x_25 + 0.0 x_26 + 0.0 x_27 + 0.0 x_28 + 0.0 x_29 + 6.0 x_30 + 0.0 x_31 + 0.0 x_32 + 0.0 x_33 + 0.0 x_34 + 0.0 x_35 - 3.0 x_36 - 22.0 x_37 + 0.0 x_38 + 29.0 x_39 + 0.0 x_40

Subject To
 e2: [  x_1 * x_9 ] = 0.0
 e3: [  x_1 * x_12 ] = 0.0
 e4: [  x_1 * x_21 ] = 0.0
 e5: [  x_1 * x_26 ] = 0.0
 e6: [  x_2 * x_25 ] = 0.0
 e7: [  x_2 * x_35 ] = 0.0
 e8: [  x_2 * x_36 ] = 0.0
 e9: [  x_3 * x_3 ] = 0.0
 e10: [  x_4 * x_3 ] = 0.0
 e11: [  x_4 * x_16 ] = 0.0
 e12: [  x_5 * x_12 ] = 0.0
 e13: [  x_5 * x_13 ] = 0.0
 e14: [  x_5 * x_17 ] = 0.0
 e15: [  x_5 * x_20 ] = 0.0
 e16: [  x_6 * x_8 ] = 0.0
 e17: [  x_6 * x_9 ] = 0.0
 e18: [  x_6 * x_14 ] = 0.0
 e19: [  x_6 * x_31 ] = 0.0
 e20: [  x_7 * x_13 ] = 0.0
 e21: [  x_9 * x_15 ] = 0.0
 e22: [  x_9 * x_26 ] = 0.0
 e23: [  x_10 * x_10 ] = 0.0
 e24: [  x_12 * x_39 ] = 0.0
 e25: [  x_13 * x_5 ] = 0.0
 e26: [  x_14 * x_14 ] = 0.0
 e27: [  x_14 * x_17 ] = 0.0
 e28: [  x_14 * x_21 ] = 0.0
 e29: [  x_15 * x_8 ] = 0.0
 e30: [  x_15 * x_13 ] = 0.0
 e31: [  x_16 * x_9 ] = 0.0
 e32: [  x_16 * x_19 ] = 0.0
 e33: [  x_16 * x_23 ] = 0.0
 e34: [  x_17 * x_5 ] = 0.0
 e35: [  x_17 * x_15 ] = 0.0
 e36: [  x_17 * x_23 ] = 0.0
 e37: [  x_17 * x_38 ] = 0.0
 e38: [  x_18 * x_34 ] = 0.0
 e39: [  x_19 * x_4 ] = 0.0
 e40: [  x_19 * x_16 ] = 0.0
 e41: [  x_19 * x_23 ] = 0.0
 e42: [  x_20 * x_16 ] = 0.0
 e43: [  x_20 * x_22 ] = 0.0
 e44: [  x_20 * x_28 ] = 0.0
 e45: [  x_22 * x_3 ] = 0.0
 e46: [  x_22 * x_8 ] = 0.0
 e47: [  x_22 * x_12 ] = 0.0
 e48: [  x_22 * x_20 ] = 0.0
 e49: [  x_22 * x_25 ] = 0.0
 e50: [  x_22 * x_27 ] = 0.0
 e51: [  x_23 * x_13 ] = 0.0
 e52: [  x_23 * x_36 ] = 0.0
 e53: [  x_24 * x_31 ] = 0.0
 e54: [  x_25 * x_30 ] = 0.0
 e55: [  x_26 * x_18 ] = 0.0
 e56: [  x_26 * x_36 ] = 0.0
 e57: [  x_27 * x_34 ] = 0.0
 e58: [  x_27 * x_35 ] = 0.0
 e59: [  x_28 * x_4 ] = 0.0
 e60: [  x_28 * x_20 ] = 0.0
 e61: [  x_30 * x_2 ] = 0.0
 e62: [  x_31 * x_17 ] = 0.0
 e63: [  x_31 * x_30 ] = 0.0
 e64: [  x_32 * x_28 ] = 0.0
 e65: [  x_32 * x_40 ] = 0.0
 e66: [  x_33 * x_25 ] = 0.0
 e67: [  x_34 * x_8 ] = 0.0
 e68: [  x_35 * x_29 ] = 0.0
 e69: [  x_35 * x_37 ] = 0.0
 e70: [  x_36 * x_6 ] = 0.0
 e71: [  x_37 * x_18 ] = 0.0
 e72: [  x_37 * x_29 ] = 0.0
 e73: [  x_37 * x_33 ] = 0.0
 e74: [  x_37 * x_35 ] = 0.0
 e75: [  x_38 * x_31 ] = 0.0
 e76: [  x_39 * x_29 ] = 0.0

Bounds
 x_1 <= 1.0
 x_2 <= 1.0
 x_3 <= 1.0
 x_4 <= 1.0
 x_5 <= 1.0
 x_6 <= 1.0
 x_7 <= 1.0
 x_8 <= 1.0
 x_9 <= 1.0
 x_10 <= 1.0
 x_11 <= 1.0
 x_12 <= 1.0
 x_13 <= 1.0
 x_14 <= 1.0
 x_15 <= 1.0
 x_16 <= 1.0
 x_17 <= 1.0
 x_18 <= 1.0
 x_19 <= 1.0
 x_20 <= 1.0
 x_21 <= 1.0
 x_22 <= 1.0
 x_23 <= 1.0
 x_24 <= 1.0
 x_25 <= 1.0
 x_26 <= 1.0
 x_27 <= 1.0
 x_28 <= 1.0
 x_29 <= 1.0
 x_30 <= 1.0
 x_31 <= 1.0
 x_32 <= 1.0
 x_33 <= 1.0
 x_34 <= 1.0
 x_35 <= 1.0
 x_36 <= 1.0
 x_37 <= 1.0
 x_38 <= 1.0
 x_39 <= 1.0
 x_40 <= 1.0

End